NAME : brazil58.45675.tour
COMMENT : Cost = 11982_45675
COMMENT : Found by LKH [Keld Helsgaun] Thu Nov 16 17:29:39 2017
TYPE : TOUR
DIMENSION : 67
TOUR_SECTION
1
18
59
44
60
57
24
64
25
13
61
40
9
63
22
42
16
11
39
3
35
10
52
51
47
49
43
27
12
62
8
38
31
7
65
58
26
19
6
28
14
37
15
34
46
56
45
33
17
36
21
29
48
41
2
54
55
5
23
66
32
20
53
4
50
67
30
-1
EOF
